3201.85 0
0 129 130 73 72 67 116 121 118 134 0 
0 30 31 119 113 120 125 135 132 136 64 0 
0 106 100 97 107 0 
0 102 110 15 11 12 16 5 17 9 3 10 4 8 7 104 98 109 0 
0 138 148 141 140 147 142 84 144 139 149 145 0 
0 54 62 60 55 61 0 
0 137 80 92 89 79 78 83 82 81 91 86 88 75 0 
0 57 41 46 58 59 52 0 
0 63 66 74 65 68 70 71 69 133 56 0 
0 131 126 128 122 117 114 124 127 123 115 29 37 34 0 
0 18 21 22 19 33 36 27 0 
0 53 51 39 44 43 38 40 49 47 50 48 45 42 101 108 99 103 105 112 0 
0 20 35 28 26 32 23 24 25 0 
0 76 77 85 87 90 93 95 96 94 0 
0 146 143 6 1 14 2 13 150 111 0 
